
n_res = 4;
rcap = [60, 69, 236, 223];
rtype = [1, 1, 2, 2];
n_tasks = 50;
modes =  [{1, 2, 3}, {4, 5, 6}, {7, 8, 9}, {10, 11, 12}, {13, 14, 15}, {16, 17, 18}, {19, 20, 21}, {22, 23, 24}, {25, 26, 27}, {28, 29, 30}, {31, 32, 33}, {34, 35, 36}, {37, 38, 39}, {40, 41, 42}, {43, 44, 45}, {46, 47, 48}, {49, 50, 51}, {52, 53, 54}, {55, 56, 57}, {58, 59, 60}, {61, 62, 63}, {64, 65, 66}, {67, 68, 69}, {70, 71, 72}, {73, 74, 75}, {76, 77, 78}, {79, 80, 81}, {82, 83, 84}, {85, 86, 87}, {88, 89, 90}, {91, 92, 93}, {94, 95, 96}, {97, 98, 99}, {100, 101, 102}, {103, 104, 105}, {106, 107, 108}, {109, 110, 111}, {112, 113, 114}, {115, 116, 117}, {118, 119, 120}, {121, 122, 123}, {124, 125, 126}, {127, 128, 129}, {130, 131, 132}, {133, 134, 135}, {136, 137, 138}, {139, 140, 141}, {142, 143, 144}, {145, 146, 147}, {148, 149, 150}];
succ =  [{49, 46, 45, 43, 42, 40, 37, 30, 29, 20, 19}, {48, 46, 44, 43, 37, 29, 21, 15, 14}, {43, 42, 41, 40, 31, 29, 28, 27, 26, 24, 23}, {48, 47, 46, 43, 42, 40, 37, 36, 34, 31, 27, 20}, {45, 44, 43, 39, 37, 31, 30, 29, 28, 15}, {50, 46, 45, 43, 42, 41, 40, 36, 35, 29, 23}, {47, 43, 42, 41, 38, 36, 35, 29, 28, 27, 23}, {48, 46, 45, 44, 41, 39, 38, 37, 36, 35, 34, 32, 29, 27}, {39, 37, 30, 28, 15}, {45, 42, 37, 36, 34, 20}, {46, 45, 43, 41, 40, 39, 37, 35, 34, 30, 28}, {40, 38, 36, 35, 28, 23}, {44, 43, 40, 37, 36, 35, 34, 32, 27}, {49, 42, 40, 31, 30, 28, 27}, {42, 40, 38, 36, 35, 34, 32, 27}, {47, 44, 39, 37, 34, 33, 32, 31}, {47, 40, 38, 37, 36, 34, 33, 30}, {41, 40, 39, 37, 35, 34, 33, 32}, {47, 44, 38, 36, 34, 32, 27}, {41, 39, 38, 35, 33, 28}, {41, 36, 35, 34, 33, 32}, {39, 37, 36, 32, 27}, {39, 37, 34, 33, 32}, {45, 44, 38, 36, 34}, {38, 36, 35, 33, 32}, {36, 33}, {33}, {32}, {33}, {32}, {35}, {}, {}, {}, {}, {}, {}, {}, {}, {}, {}, {}, {}, {}, {}, {}, {}, {}, {}, {}];
n_opt = 150;
dur = [2, 9, 10, 4, 9, 10, 2, 7, 9, 6, 8, 8, 2, 6, 6, 5, 9, 10, 1, 7, 10, 2, 3, 9, 3, 3, 10, 2, 7, 8, 2, 7, 7, 2, 3, 8, 1, 4, 10, 2, 3, 5, 4, 7, 9, 1, 4, 5, 1, 2, 5, 7, 8, 9, 6, 9, 10, 2, 6, 7, 5, 5, 9, 2, 4, 8, 1, 7, 9, 2, 3, 8, 2, 8, 10, 1, 2, 3, 6, 8, 9, 1, 3, 10, 2, 4, 7, 2, 6, 9, 5, 6, 9, 5, 8, 8, 1, 3, 5, 7, 9, 10, 5, 7, 10, 2, 3, 8, 1, 2, 10, 3, 4, 9, 3, 6, 10, 2, 5, 8, 5, 6, 10, 2, 3, 5, 1, 3, 4, 6, 7, 8, 6, 7, 9, 3, 6, 7, 2, 7, 10, 4, 9, 10, 1, 2, 6, 3, 4, 6];
rreq = [|0, 0, 0, 0, 0, 0, 4, 0, 3, 0, 0, 9, 0, 4, 0, 0, 0, 3, 3, 0, 0, 0, 0, 3, 0, 7, 7, 5, 4, 4, 0, 8, 0, 0, 0, 0, 8, 8, 8, 5, 0, 3, 4, 3, 3, 0, 0, 0, 6, 4, 0, 0, 3, 1, 0, 0, 0, 4, 3, 3, 0, 8, 0, 4, 3, 0, 6, 6, 5, 7, 7, 0, 0, 10, 0, 0, 0, 0, 0, 0, 0, 0, 0, 0, 7, 0, 0, 0, 2, 0, 8, 0, 5, 0, 0, 4, 5, 0, 0, 9, 7, 7, 0, 5, 2, 5, 3, 2, 8, 8, 0, 3, 3, 0, 0, 5, 5, 0, 0, 3, 0, 0, 0, 0, 0, 0, 0, 0, 0, 0, 2, 2, 7, 4, 4, 0, 6, 6, 8, 8, 8, 6, 0, 0, 9, 7, 5, 0, 0, 1
 |3, 3, 3, 3, 3, 3, 0, 7, 0, 9, 8, 0, 3, 0, 2, 6, 6, 0, 0, 5, 5, 7, 5, 0, 6, 0, 0, 0, 0, 0, 10, 0, 9, 7, 5, 5, 0, 0, 0, 0, 9, 0, 0, 0, 0, 8, 4, 2, 0, 0, 1, 7, 0, 0, 3, 2, 2, 0, 0, 0, 7, 0, 4, 0, 0, 1, 0, 0, 0, 0, 0, 5, 6, 0, 3, 5, 4, 3, 9, 4, 3, 8, 6, 5, 0, 7, 6, 7, 0, 4, 0, 7, 0, 6, 4, 0, 0, 3, 3, 0, 0, 0, 6, 0, 0, 0, 0, 0, 0, 0, 4, 0, 0, 6, 4, 0, 0, 5, 2, 0, 5, 4, 3, 5, 5, 5, 9, 5, 4, 7, 0, 0, 0, 0, 0, 2, 0, 0, 0, 0, 0, 0, 8, 7, 0, 0, 0, 6, 6, 0
 |9, 8, 6, 9, 9, 9, 6, 5, 5, 3, 2, 1, 6, 5, 5, 8, 7, 7, 8, 7, 7, 4, 4, 4, 7, 6, 2, 9, 3, 2, 3, 3, 3, 8, 7, 6, 5, 4, 4, 2, 2, 2, 7, 4, 4, 10, 9, 9, 8, 8, 8, 5, 3, 3, 4, 3, 2, 9, 7, 4, 6, 6, 6, 4, 4, 4, 4, 4, 4, 7, 3, 2, 4, 4, 4, 7, 5, 5, 2, 1, 1, 7, 6, 5, 10, 6, 2, 3, 2, 1, 3, 2, 2, 4, 4, 4, 8, 8, 6, 7, 7, 7, 7, 6, 5, 2, 2, 1, 9, 9, 9, 7, 6, 4, 8, 5, 5, 7, 7, 6, 7, 6, 5, 7, 6, 4, 4, 2, 2, 6, 4, 2, 6, 3, 2, 8, 8, 6, 3, 2, 2, 8, 4, 2, 5, 5, 5, 8, 7, 7
 |9, 9, 8, 9, 7, 6, 9, 7, 6, 5, 4, 4, 4, 4, 4, 4, 3, 3, 10, 9, 7, 6, 4, 3, 5, 3, 2, 7, 5, 3, 3, 3, 3, 3, 3, 2, 8, 8, 7, 8, 6, 4, 6, 6, 5, 2, 1, 1, 7, 5, 5, 6, 3, 2, 10, 8, 6, 3, 1, 1, 7, 6, 4, 7, 4, 4, 4, 2, 2, 6, 4, 3, 5, 5, 3, 5, 5, 4, 9, 9, 9, 7, 6, 5, 5, 3, 2, 1, 1, 1, 7, 4, 2, 8, 6, 6, 8, 6, 6, 5, 5, 4, 8, 7, 6, 5, 5, 5, 8, 4, 4, 9, 8, 6, 8, 6, 5, 9, 5, 4, 5, 5, 1, 6, 6, 4, 4, 3, 2, 6, 6, 4, 6, 4, 4, 4, 2, 1, 8, 4, 3, 3, 2, 1, 5, 3, 2, 7, 6, 5|];